Route #1: 34 52 13 54 19 8 46
Route #2: 27 57 15 37 20 60 36 47
Route #3: 21 61 22 64 42 41 43
Route #4: 50 25 55 18 24 49 56 23
Route #5: 31 10 38 11
Route #6: 35 14 59 53 7 26
Route #7: 58 39 9 32 44 3
Route #8: 12 40 17 51 33 6
Route #9: 16 63 1 62 28 2
Route #10: 30 48 5 29 45 4
Cost 838